sat
(
(define-fun S () String "baa")
(define-fun N () String "")
(define-fun J () String "")
(define-fun I () String "")
(define-fun H () String "b")
(define-fun V () String "")
(define-fun G () String "")
(define-fun L () String "")
(define-fun P () String "")
(define-fun Q () String "")
)
